(define-sort Feature () Bool)
(declare-const f0 Feature)
(declare-const f1 Feature)
(declare-const f2 Feature)
(declare-const f3 Feature)
(declare-const f4 Feature)
(declare-const f5 Feature)
(declare-const f6 Feature)
(declare-const f7 Feature)
(declare-const f8 Feature)
(declare-const f9 Feature)
(declare-const f10 Feature)
(declare-const f11 Feature)
(declare-const f12 Feature)
(declare-const f13 Feature)
(declare-const f14 Feature)
(declare-const f15 Feature)
(declare-const f16 Feature)

(assert f0)
(assert (and
   (=> f1 f0)
   (=> f2 f0)
   (=> f3 f0)
   (=> f4 f0)
   (=> f5 f0)
   (=> f6 f0)
   (=> f7 f0)
   (=> f8 f0)
   (=> f9 f0)
   (=> f10 f0)
   (=> f11 f0)
   (=> f12 f0)
   (=> f13 f0)
   (=> f14 f0)
   (=> f15 f0)
   (=> f16 f0)
))

(assert (and f15 f16))
(assert (and f15 f15 f16 f16))
(check-sat)